# mincost-flow problem line:  p min |V| |E| 
#
p min 6 7
#
# nodes: n index supply  
# index: 0...|V|-1)  (index(s) = 0)
#
n 0 2 
n 1 -1
n 2 -1
n 3 0
n 4 0
n 5 0
#
# arcs: a source_index target_index lower_cap upper_cap cost
# (lower caps are always 0 here)
#
# arcs from s (index = 0) : lcap = 0  ucap = 1,2,3  cost = 0
a 0 3 0 1 0
a 0 4 0 2 0
a 0 5 0 3 0
#
# inner arcs: lcap = 0, ucap = 1, cost = 1,2,3,4
a 3 2 0 1 1
a 4 1 0 1 2
a 5 1 0 1 3
a 5 2 0 1 4


